Traveling Salesman Problem/TSP_generados/Aleatorio1620390875_6.tsp
NAME: Aleatorio1620390875_6.tsp
COMMENT: Randomly generated scenario
TYPE: TSP
DIMENSION: 6
EDGE_WEIGHT_TYPE: ATT
NODE_COORD_SECTION
1 48.8 19.05
2 26.48 0.43
3 34.46 30.93
4 38.33 13.63
5 10.41 45.99
6 38.13 14.8
