Traveling Salesman Problem/TSP_generados/Aleatorio1620390875_6.opt.tour
NAME: Aleatorio1620390875_6.opt.tour
COMMENT: Optimal solution for Aleatorio1620390875_6 (125.71994357112462)
TYPE: TOUR
DIMENSION: 6
TOUR_SECTION
1 6 4 2 5 3
-1
EOF
